60 83 45 84 5 89 
94 92 98 91 44 38 14 43 57 2 58 
52 88 10 63 90 32 70 
7 47 36 46 8 17 100 37 95 
96 99 97 87 13 
21 72 39 23 67 56 4 26 
53 40 54 55 25 24 
33 81 65 66 20 1 
31 62 11 64 49 19 48 82 18 
28 76 3 79 78 29 68 80 12 
6 61 86 16 85 93 59 
27 69 30 51 9 71 35 34 77 50 
42 15 41 22 75 74 73 
